c SAT problem
p wcnf 41 45
1 -60 3120 0
1 75 -60 0
1 -75 -3165 0
1 -3135 150 0
1 3150 136 0
1 3165 -90 0
1 135 -136 0
1 150 3060 0
1 -150 151 0
1 165 -3045 0
1 3060 -240 0
1 3090 -181 0
1 -3090 -90 0
1 -3090 255 0
1 3105 165 0
1 -3105 181 0
1 180 -3015 0
1 195 -3030 0
1 -210 -211 0
1 -225 3075 0
1 -3000 -225 0
1 -3045 -240 0
1 -3045 3030 0
1 -136 -3165 0
1 151 -3165 0
1 166 3270 0
1 -3240 -211 0
1 -3240 151 0
1 3285 136 0
1 -181 -180 0
1 -196 -3210 0
1 211 -226 0
1 211 -3255 0
1 226 3121 0
1 226 3090 0
1 226 -3255 0
1 -3210 -211 0
1 3225 226 0
1 3225 211 0
1 -240 3045 0
1 -255 -240 0
1 -255 3121 0
1 3136 226 0
1 -3151 3150 0
1 -3166 -3165 0
